; NCL Gate Boolean Function - TH22: (AB)
(define-fun Th22 ((a (_ BitVec 1)) (b (_ BitVec 1)) (g_l (_ BitVec 1))) (_ BitVec 1)
    (ite
        (=
            (_ bv1 1)
            (bvand
                (bvnot a)
                (bvnot b)))
        (_ bv0 1)
        (ite
            (=
                (_ bv1 1)
                (bvand a b))
            (_ bv1 1)
            g_l))
)
